
Gurobi 9.5.0 (win64) logging started Sat Mar 26 14:43:39 2022

Set parameter LogFile to value "../results/logs/log_2022_03_26_14_43.csv_17_250.log"
Gurobi Optimizer version 9.5.0 build v9.5.0rc5 (win64)
Thread count: 6 physical cores, 12 logical processors, using up to 12 threads
Optimize a model with 8079 rows, 8078 columns and 369092 nonzeros
Model fingerprint: 0xd2b7d04e
Variable types: 0 continuous, 8078 integer (8078 binary)
Coefficient statistics:
  Matrix range     [1e+00, 2e+01]
  Objective range  [1e+00, 1e+00]
  Bounds range     [1e+00, 1e+00]
  RHS range        [1e+00, 3e+02]
Found heuristic solution: objective -0.0000000
Presolve removed 2955 rows and 1995 columns
Presolve time: 1.01s
Presolved: 5124 rows, 6083 columns, 330531 nonzeros
Variable types: 0 continuous, 6083 integer (6019 binary)
Found heuristic solution: objective 10.0000000

Root relaxation: objective 2.551962e+03, 1091 iterations, 0.05 seconds (0.04 work units)

    Nodes    |    Current Node    |     Objective Bounds      |     Work
 Expl Unexpl |  Obj  Depth IntInf | Incumbent    BestBd   Gap | It/Node Time

     0     0 2551.96196    0  109   10.00000 2551.96196      -     -    1s
H    0     0                    2491.0000000 2551.96196  2.45%     -    1s
H    0     0                    2495.0000000 2551.96196  2.28%     -    1s
H    0     0                    2502.0000000 2551.96196  2.00%     -    1s
H    0     0                    2531.0000000 2551.96196  0.83%     -    1s
H    0     0                    2532.0000000 2551.96196  0.79%     -    1s
H    0     0                    2533.0000000 2551.96196  0.75%     -    1s
     0     0 2546.52359    0  193 2533.00000 2546.52359  0.53%     -    2s
     0     0 2541.63616    0  196 2533.00000 2541.63616  0.34%     -    2s
     0     0 2541.50822    0  244 2533.00000 2541.50822  0.34%     -    3s
     0     0 2539.86791    0  173 2533.00000 2539.86791  0.27%     -    3s
     0     0 2539.67307    0  172 2533.00000 2539.67307  0.26%     -    3s
     0     0 2539.60098    0  175 2533.00000 2539.60098  0.26%     -    3s
     0     0 2539.59892    0  176 2533.00000 2539.59892  0.26%     -    3s
     0     0 2537.42686    0  237 2533.00000 2537.42686  0.17%     -    5s
     0     0 2536.43196    0  162 2533.00000 2536.43196  0.14%     -    6s
     0     0 2536.25686    0  154 2533.00000 2536.25686  0.13%     -    6s
     0     0 2536.17218    0  133 2533.00000 2536.17218  0.13%     -    6s
     0     0 2536.10578    0  137 2533.00000 2536.10578  0.12%     -    6s
     0     0 2536.08343    0  143 2533.00000 2536.08343  0.12%     -    6s
     0     0 2536.08117    0  139 2533.00000 2536.08117  0.12%     -    6s
     0     0 2535.37488    0  103 2533.00000 2535.37488  0.09%     -    8s
     0     0 2535.22654    0  105 2533.00000 2535.22654  0.09%     -    8s
     0     0 2535.08583    0  101 2533.00000 2535.08583  0.08%     -    9s
     0     0 2535.01726    0  103 2533.00000 2535.01726  0.08%     -    9s
     0     0 2534.94368    0  112 2533.00000 2534.94368  0.08%     -    9s
     0     0 2534.93475    0  123 2533.00000 2534.93475  0.08%     -    9s
     0     0 2534.93433    0  143 2533.00000 2534.93433  0.08%     -    9s
     0     0 2534.85241    0   79 2533.00000 2534.85241  0.07%     -    9s
     0     0 2534.85241    0   67 2533.00000 2534.85241  0.07%     -    9s
     0     0 2534.85241    0   79 2533.00000 2534.85241  0.07%     -    9s
     0     0 2534.85241    0   51 2533.00000 2534.85241  0.07%     -    9s
     0     0 2534.85241    0   52 2533.00000 2534.85241  0.07%     -    9s
     0     0 2534.85241    0   54 2533.00000 2534.85241  0.07%     -    9s
     0     0 2534.85241    0   46 2533.00000 2534.85241  0.07%     -    9s
     0     0 2534.68042    0   39 2533.00000 2534.68042  0.07%     -    9s
     0     0 2534.67408    0   33 2533.00000 2534.67408  0.07%     -    9s
     0     0 2534.66272    0   35 2533.00000 2534.66272  0.07%     -    9s
     0     0 2534.65741    0   35 2533.00000 2534.65741  0.07%     -    9s
     0     0 2534.33166    0   57 2533.00000 2534.33166  0.05%     -   10s
     0     0 2534.33166    0   29 2533.00000 2534.33166  0.05%     -   10s
     0     0 2534.33166    0   31 2533.00000 2534.33166  0.05%     -   10s
     0     0 2534.33166    0   35 2533.00000 2534.33166  0.05%     -   10s
     0     0 2534.33166    0   31 2533.00000 2534.33166  0.05%     -   10s
     0     0 2534.33166    0   35 2533.00000 2534.33166  0.05%     -   10s
     0     0 2534.33166    0   35 2533.00000 2534.33166  0.05%     -   10s
     0     0 2534.33166    0   36 2533.00000 2534.33166  0.05%     -   10s
     0     0 2534.33166    0   27 2533.00000 2534.33166  0.05%     -   10s
     0     0 2534.32416    0   26 2533.00000 2534.32416  0.05%     -   10s
     0     0     cutoff    0      2533.00000 2533.00000  0.00%     -   10s

Cutting planes:
  Gomory: 20
  Implied bound: 7
  Clique: 1
  MIR: 20
  StrongCG: 1
  GUB cover: 13
  RLT: 10
  Relax-and-lift: 2

Explored 1 nodes (5843 simplex iterations) in 10.06 seconds (7.04 work units)
Thread count was 12 (of 12 available processors)

Solution count 10: 2533 2533 2533 ... 2502

Optimal solution found (tolerance 1.00e-04)
Best objective 2.533000000000e+03, best bound 2.533000000000e+03, gap 0.0000%

Gurobi 9.5.0 (win64) logging started Sat Mar 26 14:43:52 2022

Set parameter LogFile to value "../results/logs/log_2022_03_26_14_43.csv_17_250.log"
Gurobi Optimizer version 9.5.0 build v9.5.0rc5 (win64)
Thread count: 6 physical cores, 12 logical processors, using up to 12 threads
Optimize a model with 1003 rows, 8078 columns and 27347 nonzeros
Model fingerprint: 0xcc32f7e3
Variable types: 0 continuous, 8078 integer (8078 binary)
Coefficient statistics:
  Matrix range     [1e+00, 2e+01]
  Objective range  [1e+00, 1e+00]
  Bounds range     [1e+00, 1e+00]
  RHS range        [1e+00, 3e+02]
Found heuristic solution: objective 2061.0000000
Presolve removed 33 rows and 6571 columns
Presolve time: 0.04s
Presolved: 970 rows, 1507 columns, 17213 nonzeros
Variable types: 0 continuous, 1507 integer (1423 binary)
Found heuristic solution: objective 2111.0000000

Root relaxation: objective 2.547778e+03, 792 iterations, 0.01 seconds (0.01 work units)

    Nodes    |    Current Node    |     Objective Bounds      |     Work
 Expl Unexpl |  Obj  Depth IntInf | Incumbent    BestBd   Gap | It/Node Time

     0     0 2547.77825    0  105 2111.00000 2547.77825  20.7%     -    0s
H    0     0                    2509.0000000 2547.77825  1.55%     -    0s
H    0     0                    2511.0000000 2547.77825  1.46%     -    0s
H    0     0                    2512.0000000 2547.77825  1.42%     -    0s
     0     0 2542.57064    0  157 2512.00000 2542.57064  1.22%     -    0s
H    0     0                    2527.0000000 2542.57064  0.62%     -    0s
     0     0 2541.12233    0  163 2527.00000 2541.12233  0.56%     -    0s
     0     0 2541.07806    0  163 2527.00000 2541.07806  0.56%     -    0s
     0     0 2541.07773    0  159 2527.00000 2541.07773  0.56%     -    0s
H    0     0                    2531.0000000 2537.48452  0.26%     -    0s
     0     0 2537.48452    0  165 2531.00000 2537.48452  0.26%     -    0s
     0     0 2536.80762    0  144 2531.00000 2536.80762  0.23%     -    0s
     0     0 2536.65184    0  132 2531.00000 2536.65184  0.22%     -    0s
     0     0 2536.62559    0  138 2531.00000 2536.62559  0.22%     -    0s
H    0     0                    2532.0000000 2536.62559  0.18%     -    0s
     0     0 2535.51489    0   99 2532.00000 2535.51489  0.14%     -    0s
H    0     0                    2533.0000000 2535.51489  0.10%     -    0s
     0     0 2535.00454    0   58 2533.00000 2535.00454  0.08%     -    0s
     0     0 2534.92042    0   78 2533.00000 2534.92042  0.08%     -    0s
     0     0 2534.84371    0   53 2533.00000 2534.84371  0.07%     -    0s
     0     0 2534.83913    0   66 2533.00000 2534.83913  0.07%     -    0s
     0     0 2534.79400    0   40 2533.00000 2534.79400  0.07%     -    0s
     0     0 2534.79400    0   63 2533.00000 2534.79400  0.07%     -    0s
     0     0 2534.79400    0   67 2533.00000 2534.79400  0.07%     -    0s
     0     0 2534.79400    0   62 2533.00000 2534.79400  0.07%     -    0s
     0     0 2534.79400    0   56 2533.00000 2534.79400  0.07%     -    0s
     0     0 2534.79400    0   48 2533.00000 2534.79400  0.07%     -    0s
     0     0 2534.79400    0   50 2533.00000 2534.79400  0.07%     -    0s
     0     0 2534.79400    0   49 2533.00000 2534.79400  0.07%     -    0s
     0     0 2534.73147    0   55 2533.00000 2534.73147  0.07%     -    0s
     0     0 2534.52442    0   41 2533.00000 2534.52442  0.06%     -    0s
     0     0 2534.34924    0   35 2533.00000 2534.34924  0.05%     -    0s
     0     0 2534.32666    0   33 2533.00000 2534.32666  0.05%     -    0s
     0     0     cutoff    0      2533.00000 2533.00000  0.00%     -    0s

Cutting planes:
  Gomory: 35
  Lift-and-project: 1
  Cover: 5
  Implied bound: 11
  Clique: 1
  MIR: 52
  StrongCG: 6
  GUB cover: 35
  Zero half: 2
  Mod-K: 1
  RLT: 13
  Relax-and-lift: 3

Explored 1 nodes (3184 simplex iterations) in 0.62 seconds (0.36 work units)
Thread count was 12 (of 12 available processors)

Solution count 10: 2533 2532 2532 ... 2509

Optimal solution found (tolerance 1.00e-04)
Best objective 2.533000000000e+03, best bound 2.533000000000e+03, gap 0.0000%
